benchmarks/bfuzz0/13935249874064305263937208991045010938.smt2
(set-logic QF_FP)
(declare-const x0 (_ FloatingPoint 8 24))
(declare-const x1 (_ FloatingPoint 8 24))
(declare-const x2 (_ FloatingPoint 8 24))
(declare-const x3 (_ FloatingPoint 8 24))
(declare-const x4 (_ FloatingPoint 8 24))
(declare-const x5 (_ FloatingPoint 8 24))
(declare-const x6 (_ FloatingPoint 8 24))
(declare-const x7 (_ FloatingPoint 8 24))
(declare-const x8 (_ FloatingPoint 8 24))
(declare-const x9 (_ FloatingPoint 8 24))
(declare-const x10 (_ FloatingPoint 8 24))
(declare-const x11 (_ FloatingPoint 8 24))
(declare-const x12 (_ FloatingPoint 8 24))
(declare-const x13 (_ FloatingPoint 8 24))
(declare-const x14 (_ FloatingPoint 8 24))
(declare-const x15 (_ FloatingPoint 8 24))
(declare-const x16 (_ FloatingPoint 8 24))
(assert (fp.gt (fp.sub RNE (fp.sub RNE (fp.div RNE (fp.div RNE x9 x1) (fp.sub RNE x6 x0)) (fp.mul RNE (fp.sub RNE x15 x0) (fp.div RNE x5 x10))) (fp.sub RNE (fp.add RNE (fp.add RNE x11 x5) (fp.add RNE x8 x11)) (fp.add RNE (fp.div RNE x15 x0) (fp.div RNE x4 x10)))) (fp.add RNE (fp.sub RNE (fp.sub RNE (fp.neg x16) (fp.div RNE x2 x3)) (fp.neg (fp.neg x6))) (fp.div RNE (fp.div RNE (fp.add RNE x9 x8) (fp.div RNE x1 x4)) (fp.add RNE (fp.sub RNE x1 x16) (fp.sub RNE x12 x7))))))
(check-sat)
