db/data/13935249874064305263937208991045010938.z3.out
sat
-------------------
421.228743078
